
List of user-set options:

                                    Name   Value                used
                           compl_inf_tol = 1                     yes
                         constr_viol_tol = 1                     yes
                            dual_inf_tol = 1000                  yes
                           linear_solver = ma97                  yes
                              ma86_small = 1e-30                  no
                                  ma86_u = 0.0001                 no
                              ma97_order = best                  yes
                              ma97_small = 1e-30                 yes
                            ma97_switch1 = at_start              yes
                            ma97_switch2 = od_hd_reuse           yes
                                  ma97_u = 1e-06                 yes
                               ma97_umax = 0.5                   yes
                                max_iter = 1000                  yes
                    max_refinement_steps = 20                    yes
                    min_refinement_steps = 5                     yes
                                 mu_init = 1e-06                 yes
           mu_superlinear_decrease_power = 1.25                  yes
                   nlp_scaling_min_value = 1e-08                 yes
                        option_file_name = Preset_Case_557_pf.opt  yes
                             output_file = ./tmp/Preset_Case_557_pf.output  yes
                      print_user_options = yes                   yes
        required_infeasibility_reduction = 1                      no
                                     tol = 1e-08                 yes
                   warm_start_bound_frac = 1e-20                 yes
                   warm_start_bound_push = 1e-20                 yes
                   warm_start_init_point = yes                   yes
              warm_start_mult_bound_push = 1e-20                 yes
                warm_start_mult_init_max = 1e+40                 yes
             warm_start_slack_bound_frac = 1e-20                 yes
             warm_start_slack_bound_push = 1e-20                 yes

******************************************************************************
This program contains Ipopt, a library for large-scale nonlinear optimization.
 Ipopt is released as open source code under the Eclipse Public License (EPL).
         For more information visit http://projects.coin-or.org/Ipopt
******************************************************************************

This is Ipopt version 3.12.10, running with linear solver ma97.

Number of nonzeros in equality constraint Jacobian...:   123442
Number of nonzeros in inequality constraint Jacobian.:      213
Number of nonzeros in Lagrangian Hessian.............:    49069

Total number of variables............................:    31591
                     variables with only lower bounds:    12912
                variables with lower and upper bounds:    15130
                     variables with only upper bounds:        0
Total number of equality constraints.................:    31483
Total number of inequality constraints...............:       25
        inequality constraints with only lower bounds:        4
   inequality constraints with lower and upper bounds:        0
        inequality constraints with only upper bounds:       21

iter    objective    inf_pr   inf_du lg(mu)  ||d||  lg(rg) alpha_du alpha_pr  ls
   0 -5.0202092e+00 4.03e-03 1.02e+00  -6.0 0.00e+00    -  0.00e+00 0.00e+00   0
   1 -5.0262222e+00 2.11e+00 2.04e+01  -6.0 6.53e+05    -  4.83e-05 3.43e-04h  1
   2 -5.0263476e+00 2.11e+00 2.14e+01  -6.0 5.09e+02  -4.0 1.08e-02 7.12e-04f  1
   3 -5.0263315e+00 2.11e+00 2.18e+01  -6.0 1.89e+05    -  3.37e-03 5.21e-05h  6
   4 -5.0348975e+00 2.02e+00 4.94e+01  -6.0 3.10e+03    -  1.72e-01 4.48e-02h  1
   5 -5.0523102e+00 1.86e+00 8.69e+01  -6.0 2.73e+03    -  1.24e-01 8.59e-02h  1
   6 -5.0736935e+00 2.12e+00 1.63e+02  -6.0 2.50e+03    -  4.01e-01 9.84e-02h  1
   7 -5.0729170e+00 1.98e+00 4.29e+02  -6.0 1.04e+02  -4.5 1.93e-01 6.85e-02h  1
   8 -5.1172555e+00 3.02e+00 3.43e+02  -6.0 1.73e+03    -  4.16e-01 1.66e-01h  1
   9 -5.1559166e+00 2.32e-01 6.27e+02  -6.0 7.15e+01  -5.0 2.19e-06 1.00e+00h  1
iter    objective    inf_pr   inf_du lg(mu)  ||d||  lg(rg) alpha_du alpha_pr  ls
  10 -5.1751663e+00 1.53e-01 3.65e+02  -6.0 4.66e+01  -5.4 2.41e-01 4.11e-01h  1
  11 -5.2332144e+00 1.97e-01 1.08e+02  -6.0 1.02e+02  -5.9 2.87e-01 1.00e+00h  1
  12 -5.2316524e+00 1.17e-01 1.97e+03  -6.0 5.99e+01  -5.5 1.41e-01 6.86e-01h  1
  13 -5.2800498e+00 1.50e+00 3.11e+03  -6.0 4.75e+01  -6.0 2.47e-02 6.27e-01h  1
  14 -5.2985271e+00 3.89e-01 6.55e+01  -6.0 7.84e+01  -6.4 5.24e-01 1.00e+00h  1
  15 -5.3027149e+00 2.69e-01 4.49e+01  -6.0 1.30e+02  -6.9 5.13e-01 3.02e-01h  1
  16 -5.3158552e+00 5.77e-01 3.41e+01  -6.0 2.72e+02  -7.4 2.84e-01 5.84e-01h  1
  17 -5.3213277e+00 1.56e+00 7.31e+01  -6.0 1.09e+03  -7.9 3.37e-02 2.36e-01h  1
  18 -5.3260885e+00 1.40e+00 6.53e+01  -6.0 1.12e+03  -7.4 1.51e-01 1.04e-01h  1
  19 -5.3428026e+00 4.06e+01 8.02e+01  -6.0 1.48e+04    -  8.94e-02 9.32e-02h  1
iter    objective    inf_pr   inf_du lg(mu)  ||d||  lg(rg) alpha_du alpha_pr  ls
  20 -5.3525894e+00 3.58e+01 5.58e+03  -6.0 4.42e+03    -  1.45e-01 1.26e-01h  1
  21 -5.3526236e+00 3.57e+01 5.44e+03  -6.0 1.29e+03  -7.9 6.22e-03 1.57e-03h  1
  22 -5.3608544e+00 3.32e+01 6.49e+03  -6.0 4.24e+03    -  1.92e-03 1.33e-01f  1
  23 -5.3656057e+00 2.93e+01 4.89e+03  -6.0 2.61e+03    -  1.45e-01 1.39e-01h  1
  24 -5.3669677e+00 2.81e+01 2.01e+04  -6.0 2.19e+03    -  3.56e-01 4.25e-02h  1
  25 -5.3748614e+00 2.09e+01 1.44e+04  -6.0 1.91e+03    -  1.71e-01 2.86e-01h  1
  26 -5.3752867e+00 2.03e+01 1.40e+04  -6.0 2.20e+03    -  2.15e-01 2.55e-02h  1
  27 -5.3800334e+00 1.48e+01 9.90e+03  -6.0 2.21e+03    -  5.40e-01 2.92e-01h  1
  28 -5.3832494e+00 8.70e+00 5.81e+03  -6.0 3.26e+02  -8.4 2.82e-01 4.13e-01h  1
  29 -5.3895601e+00 3.33e+00 9.74e+03  -6.0 4.21e+02  -8.9 3.24e-01 6.78e-01h  1
iter    objective    inf_pr   inf_du lg(mu)  ||d||  lg(rg) alpha_du alpha_pr  ls
  30 -5.3903940e+00 3.19e+00 7.46e+03  -6.0 9.07e+02  -8.4 7.11e-02 4.82e-02h  1
  31 -5.3952553e+00 4.04e+01 2.31e+04  -6.0 3.68e+03    -  1.68e-01 3.93e-01h  1
  32 -5.3957886e+00 3.96e+01 1.93e+04  -6.0 1.37e+02  -6.2 3.95e-03 2.07e-02h  1
  33 -5.4009945e+00 2.51e+01 5.50e+04  -6.0 1.95e+03    -  9.45e-02 3.94e-01h  1
  34 -5.4019750e+00 2.35e+01 4.49e+04  -6.0 6.85e+02    -  9.04e-02 6.53e-02h  1
  35 -5.4159561e+00 1.15e+00 5.13e+04  -6.0 2.02e+02  -6.7 1.36e-01 1.00e+00h  1
  36 -5.4173781e+00 1.09e+00 9.70e+04  -6.0 2.42e+02  -7.2 3.66e-01 5.79e-02h  1
  37 -5.4244641e+00 9.30e-01 7.48e+03  -6.0 2.56e+02  -7.6 1.23e-01 2.64e-01h  1
  38 -5.4364500e+00 9.66e-01 4.27e+05  -6.0 3.18e+02  -8.1 8.39e-01 3.69e-01h  1
  39r-5.4364500e+00 9.66e-01 1.00e+03  -0.0 0.00e+00  -8.6 0.00e+00 2.69e-07R  2
iter    objective    inf_pr   inf_du lg(mu)  ||d||  lg(rg) alpha_du alpha_pr  ls
  40r-5.4410769e+00 9.64e-01 1.00e+03  -0.0 1.25e+04    -  5.71e-06 1.81e-06f  1
  41 -5.4409198e+00 9.47e-01 1.07e+05  -6.0 1.19e+01    -  8.40e-02 1.79e-02h  1
  42 -5.4379427e+00 8.06e-01 1.08e+06  -6.0 8.95e+00    -  1.79e-02 1.48e-01h  1
  43 -5.4346519e+00 6.29e-01 8.41e+05  -6.0 8.49e+00    -  1.93e-01 2.20e-01h  1
  44 -5.4300873e+00 3.26e-01 4.35e+05  -6.0 7.50e+00    -  5.28e-01 4.83e-01h  1
  45 -5.4316900e+00 2.51e-01 3.35e+05  -6.0 6.32e+00    -  7.99e-01 2.29e-01h  1
  46 -5.4347585e+00 2.29e-01 3.06e+05  -6.0 1.38e+01    -  1.05e-01 8.71e-02h  1
  47 -5.4354264e+00 1.25e-01 1.66e+05  -6.0 5.62e+00    -  5.11e-01 4.57e-01h  1
  48 -5.4404501e+00 1.03e-01 1.37e+05  -6.0 2.13e+01    -  8.73e-02 1.75e-01h  1
  49 -5.4445778e+00 1.03e-01 1.37e+05  -6.0 3.06e+03    -  1.16e-03 7.15e-04h  1
iter    objective    inf_pr   inf_du lg(mu)  ||d||  lg(rg) alpha_du alpha_pr  ls
  50 -5.4497968e+00 4.39e-02 5.81e+04  -6.0 4.16e+00    -  5.85e-01 5.76e-01h  1
  51 -5.4548742e+00 3.67e-02 4.86e+04  -6.0 7.75e+00    -  9.31e-02 1.64e-01h  1
  52 -5.4689502e+00 6.82e-03 3.03e+02  -6.0 6.25e+00    -  6.74e-01 1.00e+00h  1
  53 -5.4700964e+00 6.34e-03 1.98e+03  -6.0 9.67e+00    -  8.39e-01 7.32e-02h  1
  54 -5.4755981e+00 4.60e-03 1.72e+03  -6.0 3.53e+01    -  9.36e-01 3.48e-01f  1
  55 -5.4852006e+00 6.14e-01 1.78e+03  -6.0 3.63e+02    -  8.33e-01 4.37e-01h  1
  56 -5.4996376e+00 3.37e+00 6.50e+01  -6.0 6.09e+02  -9.1 5.42e-01 6.99e-01h  1
  57 -5.5078780e+00 3.00e+00 4.70e+03  -6.0 6.15e+02    -  7.50e-01 3.58e-01h  1
  58 -5.5123966e+00 2.72e+00 1.37e+04  -6.0 1.28e+03    -  1.42e-02 2.72e-01h  1
  59 -5.5194595e+00 5.00e+00 8.84e+03  -6.0 9.14e+02    -  8.61e-01 4.64e-01h  1
iter    objective    inf_pr   inf_du lg(mu)  ||d||  lg(rg) alpha_du alpha_pr  ls
  60 -5.5289570e+00 1.21e+00 1.54e+04  -6.0 4.05e+02  -8.7 1.06e-01 8.46e-01h  1
  61 -5.5299724e+00 1.14e+00 2.24e+04  -6.0 1.65e+03    -  5.21e-01 9.75e-02h  1
  62 -5.5341680e+00 3.84e+00 7.65e+03  -6.0 1.03e+03    -  1.29e-01 3.95e-01h  1
  63 -5.5358729e+00 3.35e+00 5.31e+04  -6.0 8.87e+02    -  6.77e-01 1.58e-01h  1
  64 -5.5394853e+00 2.57e+00 7.11e+04  -6.0 8.70e+02    -  9.02e-01 3.35e-01h  1
  65 -5.5427996e+00 2.82e+00 2.44e+04  -6.0 7.55e+02    -  1.12e-02 3.18e-01h  1
  66 -5.5503462e+00 4.03e+00 3.59e+04  -6.0 5.98e+02  -7.3 1.05e-03 7.63e-01h  1
  67 -5.5525919e+00 2.05e+00 1.52e+04  -6.0 3.98e+02  -7.8 4.41e-01 4.91e-01h  1
  68 -5.5528556e+00 1.91e+00 8.91e+04  -6.0 1.41e+03  -8.3 1.10e-01 6.77e-02h  1
  69 -5.5548227e+00 1.07e+01 1.34e+05  -6.0 8.16e+02  -8.8 2.19e-03 1.00e+00f  1
iter    objective    inf_pr   inf_du lg(mu)  ||d||  lg(rg) alpha_du alpha_pr  ls
  70 -5.5531762e+00 1.95e-01 5.21e+01  -6.0 1.23e+02  -9.2 1.00e+00 1.00e+00h  1
  71 -5.5529032e+00 1.09e-02 7.84e+00  -6.0 2.37e+02  -9.7 1.00e+00 1.00e+00H  1
  72 -5.5528982e+00 2.38e-01 8.22e-01  -6.0 3.72e+02 -10.2 1.00e+00 1.00e+00H  1
  73 -5.5528864e+00 1.22e-01 1.73e+02  -6.0 4.16e+02    -  1.00e+00 1.00e+00H  1
  74 -5.5528891e+00 8.48e-03 2.56e-03  -6.0 2.08e+01    -  1.00e+00 1.00e+00h  1
  75 -5.5528897e+00 1.68e-03 4.37e-04  -6.0 7.56e+00    -  1.00e+00 1.00e+00h  1
  76 -5.5528897e+00 4.57e-05 1.00e-05  -6.0 1.16e+00    -  1.00e+00 1.00e+00h  1
  77 -5.5528897e+00 6.88e-08 1.47e-08  -6.0 4.44e-02    -  1.00e+00 1.00e+00h  1
  78 -5.5531229e+00 2.21e+01 1.85e+02  -7.5 1.45e+03    -  1.09e-01 7.48e-01h  1
  79 -5.5530696e+00 9.62e+00 1.12e+02  -7.5 6.55e+02    -  5.08e-01 7.93e-01h  1
iter    objective    inf_pr   inf_du lg(mu)  ||d||  lg(rg) alpha_du alpha_pr  ls
  80 -5.5530420e+00 1.94e-01 1.84e+01  -7.5 1.04e+02    -  8.55e-01 1.00e+00h  1
  81 -5.5530405e+00 3.63e-03 1.63e-03  -7.5 1.42e+01    -  1.00e+00 1.00e+00h  1
  82 -5.5530405e+00 2.53e-06 8.20e-07  -7.5 3.78e-01    -  1.00e+00 1.00e+00h  1
  83 -5.5530405e+00 1.75e-10 1.51e-12  -7.5 7.31e-06    -  1.00e+00 1.00e+00h  1
  84 -5.5530421e+00 7.79e-03 9.30e-01  -9.0 2.52e+01    -  9.26e-01 8.25e-01h  1
  85 -5.5530424e+00 3.94e-04 7.71e-04  -9.0 4.49e+00    -  1.00e+00 1.00e+00h  1
  86 -5.5530424e+00 8.37e-10 3.72e-09  -9.0 7.26e-03    -  1.00e+00 1.00e+00h  1

Number of Iterations....: 86

                                   (scaled)                 (unscaled)
Objective...............:  -4.3383143669086985e+00   -5.5530423896431342e+00
Dual infeasibility......:   3.7150771118422488e-09    4.7552987031580783e-09
Constraint violation....:   5.3436598072428924e-10    8.3673512563109398e-10
Complementarity.........:   1.1116148269965623e-09    1.4228669785555996e-09
Overall NLP error.......:   3.7150771118422488e-09    4.7552987031580783e-09


Number of objective function evaluations             = 98
Number of objective gradient evaluations             = 87
Number of equality constraint evaluations            = 98
Number of inequality constraint evaluations          = 98
Number of equality constraint Jacobian evaluations   = 88
Number of inequality constraint Jacobian evaluations = 88
Number of Lagrangian Hessian evaluations             = 86
Total CPU secs in IPOPT (w/o function evaluations)   =    198.365
Total CPU secs in NLP function evaluations           =      3.197

EXIT: Optimal Solution Found.
